 C  F  H  N  O  S 
 1.0000000000000000
    25.0000000000000000    0.0000000000000000    0.0000000000000000
     0.0000000000000000   25.0000000000000000    0.0000000000000000
     0.0000000000000000    0.0000000000000000   25.0000000000000000
 C   F   H   N   O   S  
   3   1   4   1   1   1
Cartesian
 11.8967270000000003 12.4600700000000018 12.1498719999999985
 14.5881970000000010 12.4836750000000016 12.8820439999999987
 10.2962510000000016 12.0031520000000018 11.9696249999999988
  9.6511150000000008 12.3843650000000007 13.0948469999999997
 15.3488850000000010 13.2007660000000016 12.5441659999999988
 14.1635370000000016 12.6392530000000018 13.8794359999999983
 10.1312440000000006 10.9483400000000017 11.7837489999999985
 10.0190470000000005 12.6244590000000017 11.1205639999999981
 12.2171110000000009 11.2660620000000016 12.2005799999999986
 14.3208950000000002 11.5010380000000012 12.2080529999999996
 12.3378800000000020 14.0516600000000018 12.1984139999999996
