 C  H  N  O  S 
 1.0000000000000000
    25.0000000000000000    0.0000000000000000    0.0000000000000000
     0.0000000000000000   25.0000000000000000    0.0000000000000000
     0.0000000000000000    0.0000000000000000   25.0000000000000000
 C   H   N   O   S  
   4   7   1   1   1
Cartesian
 13.5375589999999981 12.6202214999999995 12.2672664999999999
 11.0933259999999994 12.4007534999999987 11.8658415000000002
 14.9552819999999986 12.4534554999999987 12.6984584999999992
 10.2791169999999994 12.3541814999999993 13.1447225000000003
 10.4792819999999978 12.2005614999999992 10.9896785000000001
 15.0133339999999986 11.9092224999999985 13.6417164999999994
 15.5155379999999994 11.8858004999999984 11.9535865000000001
 15.4148949999999978 13.4315184999999992 12.8194354999999991
  9.4844619999999988 13.1000964999999994 13.0959664999999994
  9.8279039999999984 11.3696434999999987 13.2709234999999985
 10.9057699999999986 12.5646274999999985 14.0103214999999999
 13.0034279999999995 13.7693244999999997 12.1400264999999994
 11.6843459999999979 13.6926834999999993 11.6608064999999996
 12.5169949999999979 11.2306754999999985 11.8741594999999993
