 C  H  N  O  S 
 1.0000000000000000
    25.0000000000000000    0.0000000000000000    0.0000000000000000
     0.0000000000000000   25.0000000000000000    0.0000000000000000
     0.0000000000000000    0.0000000000000000   25.0000000000000000
 C   H   N   O   S  
   2   3   1   1   1
Cartesian
 13.2847940000000015 13.4208995000000026 12.0721825000000003
 11.3379310000000011 11.5233455000000014 12.2518165000000003
 11.5979330000000012 11.4794965000000015 13.3148005000000005
 11.3699720000000006 10.5829895000000018 11.6851994999999995
 13.8369640000000000 14.4170105000000017 12.1856515000000005
 12.2482990000000012 14.0981445000000019 12.1129625000000001
 10.9119610000000016 12.5452795000000012 11.7299764999999994
 14.0880390000000002 11.9858785000000019 11.9588514999999997
