 C  H  N  O  S 
 1.0000000000000000
    25.0000000000000000    0.0000000000000000    0.0000000000000000
     0.0000000000000000   25.0000000000000000    0.0000000000000000
     0.0000000000000000    0.0000000000000000   25.0000000000000000
 C   H   N   O   S  
   3   5   1   2   1
Cartesian
 13.1560559999999995 12.6103454999999993 12.2889654999999998
 10.6804160000000010 12.4130605000000003 11.9669685000000001
 14.5922239999999999 12.4374574999999989 12.6538564999999998
 14.6929730000000003 11.8785305000000001 13.5848104999999997
 15.1203560000000010 11.8843234999999989 11.8758254999999995
 15.0546280000000010 13.4147265000000004 12.7708654999999993
 10.0325540000000011 12.2345854999999997 11.1142004999999990
 10.4136080000000000 12.4463314999999994 13.8857994999999992
 12.6227090000000004 13.7647204999999992 12.1957655000000003
 11.2742199999999997 13.6959175000000002 11.8041315000000004
  9.8796440000000008 12.3216264999999989 13.0914404999999991
 12.1033030000000004 11.2352794999999990 11.9655594999999995
