 C  F  H  N  O 
 1.0000000000000000
    25.0000000000000000    0.0000000000000000    0.0000000000000000
     0.0000000000000000   25.0000000000000000    0.0000000000000000
     0.0000000000000000    0.0000000000000000   25.0000000000000000
 C   F   H   N   O  
   3   1   4   1   2
Cartesian
 12.2668909999999993 12.6364254999999996 12.5405989999999985
 14.1863669999999988 11.6310894999999999 12.2422399999999989
 10.8074820000000003 12.7788874999999997 12.7710589999999993
 10.0947069999999997 12.0077365000000000 11.8556269999999984
 14.9052930000000003 11.1778464999999994 12.9211549999999988
 10.5469479999999987 12.4282734999999995 13.7710819999999998
 10.5255849999999995 13.8221534999999989 12.6480609999999984
 14.2607210000000002 11.2197594999999986 11.2289179999999984
 13.0412009999999992 13.5981804999999998 12.2317169999999997
 14.3529149999999994 13.0440834999999993 12.2314769999999982
 12.8536559999999991 11.4285304999999990 12.7295369999999988
