 C  H  N  O  S 
 1.0000000000000000
    25.0000000000000000    0.0000000000000000    0.0000000000000000
     0.0000000000000000   25.0000000000000000    0.0000000000000000
     0.0000000000000000    0.0000000000000000   25.0000000000000000
 C   H   N   O   S  
   4   7   1   1   1
Cartesian
 12.5299154999999995 12.4735525000000003 12.1630085000000001
 15.2107654999999991 12.6235374999999994 12.9386275000000008
 10.9484924999999986 12.0039905000000005 11.9417665000000017
 10.1072205000000004 12.5465164999999992 13.0757875000000006
 15.9356934999999993 13.3618424999999998 12.5694205000000014
 14.7920455000000004 12.7961355000000001 13.9360225000000018
 10.8421934999999987 10.9281205000000003 11.8391245000000005
 10.3931414999999987 12.1001805000000004 14.0275065000000012
 10.1946044999999987 13.6274765000000002 13.1536235000000019
  9.0643064999999989 12.2848474999999997 12.8833505000000006
 10.7601554999999998 12.4607825000000005 10.9724935000000006
 12.8906025000000000 11.2955465000000004 12.2527325000000005
 14.9960804999999997 11.5952924999999993 12.3128575000000016
 12.9864564999999992 14.0718794999999997 12.1839485000000014
