 C  H  N  O 
 1.0000000000000000
    25.0000000000000000    0.0000000000000000    0.0000000000000000
     0.0000000000000000   25.0000000000000000    0.0000000000000000
     0.0000000000000000    0.0000000000000000   25.0000000000000000
 C   H   N   O  
   5   9   1   2
Cartesian
 14.1017530000000004 12.2720315000000006 11.9355204999999991
 10.9022089999999992 12.1004095000000014 12.3107584999999986
 15.6039130000000004 12.0284875000000007 12.5406344999999995
  9.4766040000000000 11.9506245000000000 11.8569394999999993
 11.2876759999999994 13.3498935000000003 13.0421894999999992
 16.1822009999999992 11.8137145000000015 11.6453744999999991
 15.8521079999999994 12.9971665000000005 12.9670424999999998
 15.7433010000000007 11.2427985000000010 13.2745394999999995
  8.8177990000000008 11.9450525000000010 12.7283234999999983
  9.1948430000000005 12.8154135000000000 11.2524414999999998
  9.3462320000000005 11.0360735000000005 11.2860424999999989
 11.8720320000000008 13.9639265000000012 12.3510684999999985
 10.4206409999999998 13.9096595000000001 13.3843934999999998
 11.9395500000000006 13.0996435000000009 13.8775804999999988
 13.6225710000000007 11.3320175000000010 12.6447924999999994
 11.7035630000000008 11.2122825000000006 12.0555674999999987
 13.8711859999999998 13.1476845000000004 11.1224194999999995
