 C  H  N  O  S 
 1.0000000000000000
    25.0000000000000000    0.0000000000000000    0.0000000000000000
     0.0000000000000000   25.0000000000000000    0.0000000000000000
     0.0000000000000000    0.0000000000000000   25.0000000000000000
 C   H   N   O   S  
   3   5   1   1   1
Cartesian
 11.7758120000000002 12.4986695000000001 12.2438839999999995
 14.5717470000000002 12.6940515000000005 12.5342759999999984
 10.2165040000000005 11.9645485000000011 12.3242199999999986
  9.8475079999999995 12.4371805000000002 13.2278609999999990
  9.7854950000000009 12.3723384999999997 11.4159879999999987
 10.0730579999999996 10.8903394999999996 12.3653509999999986
 14.3119870000000002 12.8714515000000009 13.5840119999999995
 15.2145049999999991 13.4413875000000012 12.0480659999999986
 12.1654070000000001 11.3250245000000014 12.2744809999999998
 14.2628839999999997 11.6664225000000012 11.9538169999999990
 12.1584380000000003 14.1096605000000004 12.1714359999999999
