 C  H  N  O 
 1.0000000000000000
    25.0000000000000000    0.0000000000000000    0.0000000000000000
     0.0000000000000000   25.0000000000000000    0.0000000000000000
     0.0000000000000000    0.0000000000000000   25.0000000000000000
 C   H   N   O  
   5   9   1   2
Cartesian
 13.4658890000000024 12.5781084999999990 12.4485950000000010
 11.2337790000000020 12.4917754999999993 12.4803180000000005
 14.8483060000000009 12.0455924999999979 12.4526889999999995
 10.6108740000000026 12.1963654999999989 13.8346210000000003
 10.3094440000000009 12.2506584999999983 11.3050339999999991
 14.9884170000000019 11.3560044999999992 13.2859929999999995
 15.0414980000000007 11.4962914999999981 11.5301530000000003
 15.5548450000000020 12.8662214999999982 12.5384410000000006
  9.7376850000000026 12.8303864999999995 13.9838369999999994
 10.3038990000000013 11.1523304999999979 13.8943680000000001
 11.3291840000000015 12.4025324999999995 14.6267460000000007
  9.9617820000000012 11.2179394999999982 11.2998580000000004
  9.4451550000000015 12.9096924999999985 11.3776060000000001
 10.8317100000000011 12.4584114999999986 10.3732539999999993
 13.1452260000000010 13.8067264999999981 12.5345390000000005
 11.7240040000000025 13.8476694999999985 12.4429829999999999
 12.4403570000000023 11.6994124999999993 12.3271080000000008
