 C  F  H  N  O  S 
 1.0000000000000000
    25.0000000000000000    0.0000000000000000    0.0000000000000000
     0.0000000000000000   25.0000000000000000    0.0000000000000000
     0.0000000000000000    0.0000000000000000   25.0000000000000000
 C   F   H   N   O   S  
   3   1   4   1   1   1
Cartesian
 13.0266359999999981 12.6893220000000007 12.2640244999999997
 10.7275229999999979 12.0762010000000011 12.8240625000000001
 14.5002569999999977 12.8090130000000002 12.0599244999999993
 15.1919989999999974 12.0923490000000005 13.0345235000000006
  9.8080009999999973 11.7413950000000007 12.3529374999999995
 14.7880989999999972 12.4003999999999994 11.0893164999999989
 14.7875319999999988 13.8566050000000001 12.1258944999999994
 10.6724559999999986 11.9809839999999994 13.9106834999999993
 12.3152439999999981 13.7369830000000004 12.4112744999999993
 10.9478689999999972 13.4356179999999998 12.4547445000000003
 12.1773779999999974 11.1433949999999999 12.2018524999999993
