 C  H  N  O  S 
 1.0000000000000000
    25.0000000000000000    0.0000000000000000    0.0000000000000000
     0.0000000000000000   25.0000000000000000    0.0000000000000000
     0.0000000000000000    0.0000000000000000   25.0000000000000000
 C   H   N   O   S  
   3   3   1   2   1
Cartesian
 12.5413835000000002 13.3992549999999984 12.5000000000000000
 12.0721904999999996 10.5658579999999986 12.5000000000000000
 12.6011695000000010 14.9740349999999971 12.5000000000000000
 13.1454935000000006 15.2445019999999971 13.4003969999999999
 13.1454935000000006 15.2445019999999971 11.5996030000000001
 11.6230115000000005 15.4483089999999983 12.5000000000000000
 11.2989585000000012 13.2496989999999979 12.5000000000000000
 11.1194574999999993 11.2926989999999972 12.5000000000000000
 12.6429384999999996  9.5516909999999982 12.5000000000000000
 13.8805425000000007 12.4030319999999978 12.5000000000000000
