 C  H  N  O 
 1.0000000000000000
    25.0000000000000000    0.0000000000000000    0.0000000000000000
     0.0000000000000000   25.0000000000000000    0.0000000000000000
     0.0000000000000000    0.0000000000000000   25.0000000000000000
 C   H   N   O  
   3   6   2   2
Cartesian
 13.5215339999999991 12.5488549999999996 12.4891234999999998
 11.3303300000000000 12.3932169999999999 12.0720884999999996
 14.9050189999999994 12.0513060000000003 12.6659024999999996
 10.9151939999999996 12.3720979999999994 11.0631295000000005
 10.6169480000000007 12.0353750000000002 13.9368704999999995
  9.4526380000000003 12.0878040000000002 12.7602615000000004
 14.9298299999999990 11.2578659999999999 13.4138324999999998
 15.2794480000000004 11.6372859999999996 11.7288554999999999
 15.5473619999999997 12.8682499999999997 12.9822784999999996
 13.1270410000000002 13.7421340000000001 12.6885814999999997
 10.4029799999999994 11.8190799999999996 12.9712545000000006
 11.7337720000000001 13.7408769999999993 12.3905785000000002
 12.5706650000000000 11.6684339999999995 12.0875835000000009
