 C  H  N  O 
 1.0000000000000000
    25.0000000000000000    0.0000000000000000    0.0000000000000000
     0.0000000000000000   25.0000000000000000    0.0000000000000000
     0.0000000000000000    0.0000000000000000   25.0000000000000000
 C   H   N   O  
   3   5   1   3
Cartesian
 13.0607234999999999 12.5363094999999980 12.4553440000000020
 10.3893725000000003 12.6995674999999988 12.2901180000000014
 14.5959485000000004 12.5878484999999980 12.9013630000000017
 14.7036855000000006 11.7438944999999997 13.5782550000000004
 15.1416175000000006 12.4382834999999989 11.9727130000000006
 14.9245595000000009 13.5015834999999988 13.3846960000000017
  9.9413745000000002 12.2078304999999983 11.4217450000000014
  9.8583825000000012 11.2093564999999984 13.3329080000000015
 12.7696005000000010 13.7009664999999980 12.8813840000000006
 10.9252085000000001 13.7906434999999981 12.2026440000000012
 10.2021285000000006 12.1024344999999993 13.4632840000000016
 12.5608594999999994 11.5582984999999994 11.9058020000000013
