 C  H  N  O 
 1.0000000000000000
    25.0000000000000000    0.0000000000000000    0.0000000000000000
     0.0000000000000000   25.0000000000000000    0.0000000000000000
     0.0000000000000000    0.0000000000000000   25.0000000000000000
 C   H   N   O  
   3   5   1   3
Cartesian
 13.0094554999999978 12.5490169999999992 12.4710210000000039
 10.8300714999999990 12.3520249999999976 12.0667350000000031
 14.4015654999999985 12.0850969999999975 12.6680770000000038
 14.4315124999999984 11.2735169999999982 13.3958140000000032
 14.8054704999999984 11.7056469999999990 11.7287290000000031
 15.0151064999999981 12.9103229999999982 13.0181500000000039
 10.3292264999999990 12.2574589999999990 11.1059190000000036
 10.2883684999999989 12.0872469999999979 13.8940810000000035
 12.5773444999999988 13.7264829999999982 12.6914120000000032
 11.1898554999999984 13.6931259999999977 12.3354310000000034
  9.9848934999999983 11.8247869999999988 13.0153660000000038
 12.0892994999999992 11.6626399999999979 12.0143300000000028
