 C  H  N  O  S 
 1.0000000000000000
    25.0000000000000000    0.0000000000000000    0.0000000000000000
     0.0000000000000000   25.0000000000000000    0.0000000000000000
     0.0000000000000000    0.0000000000000000   25.0000000000000000
 C   H   N   O   S  
   3   5   1   1   1
Cartesian
 13.1904994999999996 12.6527430000000027 12.2342670000000009
 10.7626724999999990 12.3609460000000020 12.4665090000000003
 14.6748924999999986 12.5387140000000024 12.3082840000000004
 14.9798264999999997 12.0269390000000023 13.2215210000000010
 15.0527245000000001 11.9611210000000021 11.4628270000000008
 15.1175544999999989 13.5316390000000020 12.2869779999999995
 10.5427334999999989 12.3594170000000023 13.5371730000000010
  9.8824454999999993 12.0979460000000021 11.8865340000000010
 12.6013014999999999 13.7812830000000019 12.2049909999999997
 11.2055074999999995 13.6447700000000012 12.0474290000000011
 12.1518734999999989 11.2187170000000016 12.1265710000000002
