 C  F  H  N  O  S 
 1.0000000000000000
    25.0000000000000000    0.0000000000000000    0.0000000000000000
     0.0000000000000000   25.0000000000000000    0.0000000000000000
     0.0000000000000000    0.0000000000000000   25.0000000000000000
 C   F   H   N   O   S  
   3   1   4   1   1   1
Cartesian
 11.9242065000000004 12.4099304999999998 12.2840880000000006
 14.7048655000000004 12.5056124999999998 12.0203540000000011
 10.3944124999999996 12.0861125000000005 12.6617860000000011
 15.0029205000000001 12.6760304999999995 13.3175489999999996
 10.2272685000000010 12.6085844999999992 13.5980500000000006
  9.8183745000000009 12.5061245000000003 11.8433480000000007
 10.1754584999999995 11.0294974999999997 12.7735370000000010
 15.1816254999999991 13.2618144999999998 11.4019500000000011
 12.2941915000000002 11.2222624999999994 12.2686160000000015
 14.2125714999999992 11.4768375000000002 11.6214399999999998
 12.4704634999999993 13.9705025000000003 12.0767760000000006
