 C  H  N  O  S 
 1.0000000000000000
    25.0000000000000000    0.0000000000000000    0.0000000000000000
     0.0000000000000000   25.0000000000000000    0.0000000000000000
     0.0000000000000000    0.0000000000000000   25.0000000000000000
 C   H   N   O   S  
   4   7   1   1   1
Cartesian
 13.9771095000000010 12.5072170000000007 12.2554374999999993
 10.9659385000000018 12.3469879999999996 12.6162805000000002
 15.4902415000000016 11.9412130000000012 12.5090915000000003
  9.6078035000000011 12.9220360000000003 12.3960805000000001
 16.0411685000000013 12.3508360000000010 11.6684915000000000
 15.7684705000000012 12.3912650000000006 13.4562504999999994
 15.6049155000000006 10.8621750000000006 12.5479614999999995
 11.4777745000000007 12.6280169999999998 13.5459104999999997
  8.9588315000000005 12.6391749999999998 13.2287955000000004
  9.6837215000000008 14.0115790000000011 12.4100204999999999
  9.1831735000000005 12.5857360000000007 11.4540895000000003
 13.5283785000000005 11.3462689999999995 12.2206534999999992
 11.4996045000000002 11.5856320000000004 11.8316304999999993
 13.6652085000000003 14.1378249999999994 12.1717145000000002
