 C  H  N  O  S 
 1.0000000000000000
    25.0000000000000000    0.0000000000000000    0.0000000000000000
     0.0000000000000000   25.0000000000000000    0.0000000000000000
     0.0000000000000000    0.0000000000000000   25.0000000000000000
 C   H   N   O   S  
   4   7   1   1   1
Cartesian
 12.3407255000000013 12.7242315000000019 12.6794339999999988
  9.9718654999999998 12.0882095000000032 12.5360339999999990
 13.7947365000000008 12.8467805000000030 13.0120629999999995
 14.7100895000000005 12.1603455000000018 11.9915379999999985
 13.9639895000000003 12.4192445000000031 14.0031489999999987
  9.5761035000000003 12.1159405000000024 13.5546550000000003
  9.2470065000000012 11.6639525000000024 11.8468619999999998
 15.7529935000000005 12.2942805000000028 12.2776759999999996
 14.5154364999999999 11.0891055000000023 11.9322669999999995
 14.5722285000000014 12.5836315000000027 10.9968509999999995
 14.0210795000000008 13.9108945000000030 13.0718920000000001
 11.6146135000000008 13.7481905000000033 12.4637639999999994
 10.2989625000000018 13.3968275000000023 12.0897720000000000
 11.5404715000000007 11.1464095000000025 12.5138540000000003
