 C  F  H  N  O 
 1.0000000000000000
    25.0000000000000000    0.0000000000000000    0.0000000000000000
     0.0000000000000000   25.0000000000000000    0.0000000000000000
     0.0000000000000000    0.0000000000000000   25.0000000000000000
 C   F   H   N   O  
   3   1   4   1   2
Cartesian
 11.7103570000000001 12.7311000000000032 12.1490450000000010
 14.4341279999999994 12.9186570000000032 13.0260300000000004
 10.1741930000000007 12.1681350000000030 12.1701850000000000
  9.5618300000000005 12.7436910000000019 13.2508540000000004
 15.4381699999999995 13.3481130000000032 12.9120470000000012
 13.7543249999999997 13.3673000000000020 13.7548700000000004
 10.0465190000000000 11.0920460000000034 12.2069550000000007
  9.7812979999999996 12.5929080000000031 11.2451300000000014
 12.2085779999999993 11.5849760000000028 12.4028170000000006
 14.1222460000000005 11.9566630000000025 12.3554160000000000
 11.9548459999999999 13.9079540000000019 11.9542970000000004
