 C  H  N  O 
 1.0000000000000000
    25.0000000000000000    0.0000000000000000    0.0000000000000000
     0.0000000000000000   25.0000000000000000    0.0000000000000000
     0.0000000000000000    0.0000000000000000   25.0000000000000000
 C   H   N   O  
   4   7   1   2
Cartesian
 12.6444000000000010 12.5814919999999990 12.1551700000000000
 15.1405810000000010 13.1154709999999994 12.7879070000000006
 11.0968790000000013 12.0651169999999990 12.0504650000000009
 10.2546660000000003 12.9362989999999982 12.9639340000000001
 15.7998050000000010 13.7912529999999993 12.2280680000000004
 14.6600520000000003 13.5112349999999992 13.6876630000000006
 10.9681430000000013 11.0076999999999980 12.2594420000000000
 10.4853109999999994 12.7462369999999989 14.0119720000000001
 10.4132060000000006 13.9922999999999984 12.7557600000000004
  9.2001950000000008 12.7013559999999988 12.8058040000000002
 10.9132759999999998 12.2274089999999980 10.9880279999999999
 13.0797600000000003 11.4603819999999992 12.5409039999999994
 15.0423350000000013 11.9432579999999984 12.4590930000000011
 12.9701389999999996 13.7362989999999989 11.8984889999999996
