 C  F  H  N  O  S 
 1.0000000000000000
    25.0000000000000000    0.0000000000000000    0.0000000000000000
     0.0000000000000000   25.0000000000000000    0.0000000000000000
     0.0000000000000000    0.0000000000000000   25.0000000000000000
 C   F   H   N   O   S  
   3   1   4   1   1   1
Cartesian
 13.1068295000000017 12.6148030000000002 12.3850590000000000
 10.6709335000000021 12.4073030000000006 12.0781730000000014
 14.5427415000000018 12.4463600000000003 12.7498590000000007
 10.0124025000000021 12.3416930000000011 13.2966050000000013
 14.6392845000000023 11.9110640000000014 13.6947530000000004
 15.0672745000000017 11.8723550000000007 11.9848140000000001
 15.0082505000000026 13.4244260000000004 12.8433220000000006
  9.9327255000000019 12.2115140000000011 11.3052470000000014
 12.5685815000000023 13.7655050000000010 12.2880270000000014
 11.2117915000000021 13.6682760000000005 11.8903180000000006
 12.0578075000000027 11.2344950000000008 12.0599790000000002
