 C  H  N  O 
 1.0000000000000000
    25.0000000000000000    0.0000000000000000    0.0000000000000000
     0.0000000000000000   25.0000000000000000    0.0000000000000000
     0.0000000000000000    0.0000000000000000   25.0000000000000000
 C   H   N   O  
   4   7   1   2
Cartesian
 12.0172760000000007 12.7350464999999993 12.7045400000000015
 10.0638690000000004 11.7398574999999994 12.5396490000000007
 13.4644100000000009 12.8608905000000000 13.0190739999999998
 14.3598220000000012 12.1711404999999999 11.9814500000000006
 13.6406869999999998 12.4267284999999994 14.0061100000000014
  9.5929409999999997 11.6079585000000005 13.5222730000000002
  9.6299290000000006 11.0760614999999998 11.7937210000000015
 15.4070590000000003 12.2849164999999996 12.2597860000000001
 14.1396040000000003 11.1065504999999991 11.9155949999999997
 14.2208930000000002 12.6107025000000004 10.9938900000000004
 13.6909930000000006 13.9239385000000002 13.0801330000000000
 11.2303050000000013 13.6965404999999993 12.4285110000000003
  9.9714500000000008 13.0855955000000002 12.1058210000000006
 11.4677140000000009 11.4884325000000000 12.6620360000000005
