 C  F  H  N  O 
 1.0000000000000000
    25.0000000000000000    0.0000000000000000    0.0000000000000000
     0.0000000000000000   25.0000000000000000    0.0000000000000000
     0.0000000000000000    0.0000000000000000   25.0000000000000000
 C   F   H   N   O  
   3   1   4   1   2
Cartesian
 12.0896795000000008 12.5738459999999996 12.3107560000000014
 14.2312305000000023 12.3613999999999997 12.7030780000000014
 10.7007445000000025 12.1062089999999998 12.1170020000000012
 14.9057805000000023 11.8044729999999998 11.6353990000000014
 10.6792795000000016 11.2689660000000007 11.4190120000000022
 10.2859805000000009 11.7640700000000002 13.0657910000000008
 10.0942195000000012 12.9191020000000005 11.7284650000000017
 14.8605455000000006 12.2430509999999995 13.5809880000000014
 12.5456155000000020 13.7310340000000011 12.0452070000000013
 13.9246815000000019 13.6841310000000007 12.4492400000000014
 13.0031625000000020 11.7040240000000004 12.8397770000000016
