 C  H  N  O  S 
 1.0000000000000000
    25.0000000000000000    0.0000000000000000    0.0000000000000000
     0.0000000000000000   25.0000000000000000    0.0000000000000000
     0.0000000000000000    0.0000000000000000   25.0000000000000000
 C   H   N   O   S  
   3   5   1   2   1
Cartesian
 11.8794539999999973 12.4689424999999989 12.2053644999999999
 14.7281739999999974 12.6277284999999999 11.9742204999999995
 10.4143179999999980 11.9835574999999999 12.6439444999999999
 10.2358159999999963 12.4689765000000001 13.5980714999999996
  9.7584719999999976 12.3601294999999993 11.8651264999999988
 10.3043449999999979 10.9080005000000000 12.7403634999999991
 15.1835929999999983 13.4405584999999999 11.4019285000000004
 15.2415279999999971 13.5263434999999994 13.5643475000000002
 12.3710829999999969 11.3215504999999990 12.1454604999999987
 14.2019579999999976 11.6749824999999987 11.4268544999999992
 14.9090519999999973 12.6607585000000000 13.2939755000000002
 12.2273149999999973 14.0919995000000000 12.0120764999999992
