 C  H  N  O  S 
 1.0000000000000000
    25.0000000000000000    0.0000000000000000    0.0000000000000000
     0.0000000000000000   25.0000000000000000    0.0000000000000000
     0.0000000000000000    0.0000000000000000   25.0000000000000000
 C   H   N   O   S  
   5   9   1   1   1
Cartesian
 10.7699084999999997 12.6381384999999984 12.1230740000000008
 14.1369845000000005 12.6141834999999993 12.2359419999999997
  9.4106255000000001 11.7842504999999989 12.4292440000000006
 13.7964345000000002 12.7942284999999991 13.6856200000000001
 15.5143005000000009 13.0052164999999995 11.7750529999999998
  9.1002954999999996 12.1483304999999984 13.4030749999999994
  8.7425905000000004 12.0979784999999982 11.6336499999999994
  9.5073074999999996 10.7026674999999987 12.4369350000000001
 14.6797445000000000 12.9497614999999993 14.3004130000000007
 13.1446884999999991 13.6703554999999994 13.7580229999999997
 13.2263085000000000 11.9382594999999991 14.0415320000000001
 15.7112014999999996 14.0411524999999990 12.0594330000000003
 16.2574095000000014 12.3889974999999986 12.2863009999999999
 15.6093824999999988 12.8884194999999995 10.6995869999999993
 11.4361464999999995 11.5907534999999982 12.0079689999999992
 13.3311875000000004 12.1890924999999992 11.4228000000000005
 10.7581974999999996 14.2973324999999996 12.1045400000000001
