 C  H  N  O 
 1.0000000000000000
    25.0000000000000000    0.0000000000000000    0.0000000000000000
     0.0000000000000000   25.0000000000000000    0.0000000000000000
     0.0000000000000000    0.0000000000000000   25.0000000000000000
 C   H   N   O  
   2   3   1   2
Cartesian
 11.1881155000000003 12.3370580000000007 12.1345885000000013
 13.9024904999999990 13.0571850000000005 12.3317885000000018
 13.3757625000000004 13.3771950000000004 13.2333195000000003
 14.7062434999999994 13.6914689999999997 11.9377775000000010
 10.2937565000000006 11.6431450000000005 12.3907895000000003
 11.9429745000000000 11.3085310000000003 12.2355615000000011
 13.6461714999999995 12.0116110000000003 11.7666805000000014
 11.1243215000000006 13.5341240000000003 11.9233245000000014
