 C  H  N  O  S 
 1.0000000000000000
    25.0000000000000000    0.0000000000000000    0.0000000000000000
     0.0000000000000000   25.0000000000000000    0.0000000000000000
     0.0000000000000000    0.0000000000000000   25.0000000000000000
 C   H   N   O   S  
   3   6   2   1   1
Cartesian
 13.5719494999999988 12.6080649999999981 12.2946495000000002
 11.0976404999999989 12.3967949999999973 11.9399505000000001
 15.0024005000000002 12.4210209999999979 12.6736495000000016
 10.4941314999999999 12.2572399999999977 11.0465205000000015
 10.7871414999999988 12.3726689999999984 13.9534795000000003
  9.4642494999999993 12.8216819999999974 13.0624605000000003
 15.0900324999999995 11.8536159999999970 13.6009495000000005
 15.5357504999999989 11.8707819999999984 11.8967415000000010
 15.4705425000000005 13.3939899999999987 12.8036745000000014
 13.0433604999999986 13.7644249999999975 12.2056755000000017
 10.2818794999999987 12.2249339999999975 13.0893345000000014
 11.7078445000000002 13.7084249999999983 11.7927415000000000
 12.5192784999999986 11.2355749999999972 11.9451815000000003
