 C  H  N  O 
 1.0000000000000000
    25.0000000000000000    0.0000000000000000    0.0000000000000000
     0.0000000000000000   25.0000000000000000    0.0000000000000000
     0.0000000000000000    0.0000000000000000   25.0000000000000000
 C   H   N   O  
   3   3   1   3
Cartesian
 11.8978909999999996 12.5847379999999998 12.5000000000000000
 14.0740009999999991 12.8230590000000007 12.5000000000000000
 10.4845170000000003 13.0132919999999999 12.5000000000000000
 10.2754610000000000 13.6187339999999999 13.3822159999999997
 10.2754610000000000 13.6187339999999999 11.6177840000000003
  9.8425630000000002 12.1368130000000001 12.5000000000000000
 12.3264990000000001 11.3812660000000001 12.5000000000000000
 13.7470630000000007 11.5090199999999996 12.5000000000000000
 15.1574369999999998 13.2994669999999999 12.5000000000000000
 12.8784869999999998 13.5249530000000000 12.5000000000000000
