 C  H  N  O 
 1.0000000000000000
    25.0000000000000000    0.0000000000000000    0.0000000000000000
     0.0000000000000000   25.0000000000000000    0.0000000000000000
     0.0000000000000000    0.0000000000000000   25.0000000000000000
 C   H   N   O  
   3   6   2   2
Cartesian
 13.8343895000000003 12.6485924999999995 12.2007040000000000
 10.9059224999999991 12.3831044999999982 12.5887820000000001
 15.3893655000000003 12.2429374999999983 12.5115669999999994
 15.9008834999999991 12.5896744999999992 11.6168940000000003
 15.6266785000000006 12.8478094999999986 13.3831059999999997
 15.6232635000000002 11.2007244999999980 12.6975650000000009
 11.4014085000000005 12.9478894999999987 13.3816559999999996
  9.0991165000000009 12.2512814999999993 11.6566460000000003
  9.1850035000000005 13.4351074999999991 12.9209239999999994
 13.4619785000000007 11.4397294999999986 12.3217970000000001
  9.6159715000000006 12.6922674999999980 12.4002230000000004
 11.4900195000000007 11.5231504999999981 11.9328789999999998
 13.4953765000000008 13.7992754999999985 11.9899000000000004
