 C  H  N  O  S 
 1.0000000000000000
    25.0000000000000000    0.0000000000000000    0.0000000000000000
     0.0000000000000000   25.0000000000000000    0.0000000000000000
     0.0000000000000000    0.0000000000000000   25.0000000000000000
 C   H   N   O   S  
   3   3   1   2   1
Cartesian
 12.6123075000000000 13.2976434999999960 12.5000000000000000
 12.3940035000000002 10.8358504999999976 12.5000000000000000
 13.0112054999999991 14.7328644999999963 12.5000000000000000
 13.6086545000000001 14.9662144999999960 13.3819490000000005
 13.6086545000000001 14.9662144999999960 11.6180509999999995
 12.1168514999999992 15.3520224999999968 12.5000000000000000
 11.3801725000000005 12.9500854999999966 12.5000000000000000
 11.2292205000000003 11.5571434999999969 12.5000000000000000
 12.4339694999999999  9.6479774999999961 12.5000000000000000
 13.7707794999999997 11.9879434999999965 12.5000000000000000
