 C  H  N  O 
 1.0000000000000000
    25.0000000000000000    0.0000000000000000    0.0000000000000000
     0.0000000000000000   25.0000000000000000    0.0000000000000000
     0.0000000000000000    0.0000000000000000   25.0000000000000000
 C   H   N   O  
   2   3   1   2
Cartesian
 13.4838589999999989 12.1858099999999983 12.3161055000000008
 11.3010190000000001 12.3174729999999997 12.3776415000000011
 10.8916930000000001 12.2025049999999986 13.3880805000000009
 10.5479819999999993 12.1400649999999981 11.6119195000000008
 14.4520179999999989 11.7149459999999994 12.3491444999999995
 13.2964179999999992 13.4391259999999981 12.3426115000000003
 11.8792080000000002 13.6042269999999981 12.2047615000000000
 12.3910529999999994 11.3957729999999984 12.2114624999999997
