 C  H  N  O 
 1.0000000000000000
    25.0000000000000000    0.0000000000000000    0.0000000000000000
     0.0000000000000000   25.0000000000000000    0.0000000000000000
     0.0000000000000000    0.0000000000000000   25.0000000000000000
 C   H   N   O  
   4   7   1   2
Cartesian
 11.4252070000000003 12.6743070000000007 12.4292425000000009
 13.5913159999999991 12.5935340000000000 12.8549685000000000
 10.0391529999999989 12.1628610000000013 12.3293095000000008
 14.8118400000000001 12.1001460000000005 12.1270505000000011
 13.7352779999999992 12.6052820000000008 13.9447875000000003
  9.9579899999999988 11.4716170000000002 11.4891075000000011
  9.7659559999999992 11.6201080000000001 13.2347045000000012
  9.3535149999999998 12.9922320000000013 12.1811585000000004
 15.6464850000000002 12.7722510000000007 12.3235255000000006
 15.0793409999999994 11.1035649999999997 12.4770335000000010
 14.6230759999999993 12.0706319999999998 11.0552125000000014
 11.7738979999999991 13.8964350000000003 12.3496605000000006
 13.2048190000000005 13.8895390000000010 12.4099655000000002
 12.4342170000000003 11.7770270000000004 12.5845995000000013
