 C  H  N  O  S 
 1.0000000000000000
    25.0000000000000000    0.0000000000000000    0.0000000000000000
     0.0000000000000000   25.0000000000000000    0.0000000000000000
     0.0000000000000000    0.0000000000000000   25.0000000000000000
 C   H   N   O   S  
   3   6   2   1   1
Cartesian
 13.8987199999999991 12.5621769999999984 12.1723565000000011
 10.8309730000000002 12.5154789999999991 12.5105505000000008
 15.3525770000000001 11.8729039999999983 12.4801925000000011
 15.9619079999999993 12.2313859999999988 11.6567525000000014
 15.6349590000000003 12.3069939999999995 13.4335145000000011
 15.3803529999999995 10.7884699999999984 12.5284025000000021
 11.3524609999999999 12.8675749999999987 13.4045615000000016
  9.0380919999999989 12.7270209999999988 11.5664855000000006
  9.1948480000000004 13.6187749999999994 13.0445295000000012
 13.3642959999999995 11.4385289999999991 12.1303125000000005
  9.5692260000000005 12.9536659999999983 12.3916855000000012
 11.3617919999999994 11.7665269999999982 11.6953705000000010
 13.7288189999999997 14.2115299999999998 12.0716035000000019
