 C  H  N  O 
 1.0000000000000000
    25.0000000000000000    0.0000000000000000    0.0000000000000000
     0.0000000000000000   25.0000000000000000    0.0000000000000000
     0.0000000000000000    0.0000000000000000   25.0000000000000000
 C   H   N   O  
   4   7   1   2
Cartesian
 13.9276354999999992 12.6233539999999991 12.2195640000000019
 11.0225104999999992 12.2961609999999997 12.6238880000000009
 15.4920814999999994 12.2621889999999993 12.5018230000000017
  9.6110644999999995 12.6986609999999995 12.3709920000000011
 15.9860384999999994 12.6473249999999986 11.6129840000000009
 15.7216754999999999 12.8481919999999992 13.3882720000000024
 15.7558694999999993 11.2217199999999995 12.6561070000000022
 11.5267374999999994 12.7524059999999988 13.4849180000000022
  9.0139614999999988 12.5065049999999989 13.2657600000000020
  9.5849494999999987 13.7782799999999988 12.2016890000000018
  9.1950944999999997 12.1741789999999988 11.5150820000000014
 13.5821234999999998 11.4010280000000002 12.3048930000000016
 11.6160264999999985 11.4958789999999986 11.9252740000000017
 13.5452654999999993 13.7670399999999997 12.0450340000000011
