 C  H  N  O 
 1.0000000000000000
    25.0000000000000000    0.0000000000000000    0.0000000000000000
     0.0000000000000000   25.0000000000000000    0.0000000000000000
     0.0000000000000000    0.0000000000000000   25.0000000000000000
 C   H   N   O  
   3   3   1   3
Cartesian
 12.5845624999999988 13.2228340000000006 12.5000000000000000
 12.7158234999999991 10.5649600000000010 12.5000000000000000
 12.4586554999999990 14.7799220000000009 12.5000000000000000
 12.9717564999999979 15.1127240000000000 13.3996169999999992
 12.9717564999999979 15.1127240000000000 11.6003830000000008
 11.4362294999999996 15.1486470000000004 12.5000000000000000
 11.3464934999999993 12.8884210000000010 12.5000000000000000
 11.6022674999999982 10.9932390000000009 12.5000000000000000
 13.6239514999999987  9.8513530000000014 12.5000000000000000
 13.6535064999999989 12.6080640000000006 12.5000000000000000
