 C  H  N  O  S 
 1.0000000000000000
    25.0000000000000000    0.0000000000000000    0.0000000000000000
     0.0000000000000000   25.0000000000000000    0.0000000000000000
     0.0000000000000000    0.0000000000000000   25.0000000000000000
 C   H   N   O   S  
   2   3   1   1   1
Cartesian
 12.5168164999999991 13.6220140000000001 12.2192915000000024
 12.4293125000000000 11.1857980000000019 12.3035975000000022
 12.4008544999999994 10.8802070000000004 13.3521805000000029
 12.5550354999999989 10.3290880000000005 11.6478195000000024
 12.7477114999999994 14.6709120000000013 12.3280715000000018
 11.3063664999999993 13.2405820000000016 12.1655935000000017
 11.2224485000000005 11.8500650000000007 11.9434705000000019
 13.7775514999999995 12.4087410000000009 12.0595405000000024
