 C  H  N  O 
 1.0000000000000000
    25.0000000000000000    0.0000000000000000    0.0000000000000000
     0.0000000000000000   25.0000000000000000    0.0000000000000000
     0.0000000000000000    0.0000000000000000   25.0000000000000000
 C   H   N   O  
   3   5   1   2
Cartesian
 11.6119234999999996 12.6857804999999999 12.2268764999999995
 14.4496564999999997 12.7428854999999999 12.6102814999999993
 10.0767444999999984 12.2027614999999994 12.4220085000000005
  9.7505144999999995 12.7580355000000001 13.2978854999999996
  9.5972734999999982 12.5506574999999998 11.5101494999999989
  9.8980784999999987 11.1416214999999994 12.5576615000000000
 13.9461054999999980 13.1527484999999995 13.4898504999999993
 15.4027264999999982 13.1948574999999995 12.3018695000000005
 12.0657714999999985 11.4978495000000009 12.3195604999999997
 14.0054974999999988 11.8022585000000007 11.9870254999999997
 11.9160224999999986 13.8583785000000006 12.0788014999999991
