 C  H  N  O  S 
 1.0000000000000000
    25.0000000000000000    0.0000000000000000    0.0000000000000000
     0.0000000000000000   25.0000000000000000    0.0000000000000000
     0.0000000000000000    0.0000000000000000   25.0000000000000000
 C   H   N   O   S  
   5   9   1   1   1
Cartesian
 13.7011994999999995 12.6024915000000011 12.3394690000000011
 11.2009584999999987 12.5074035000000006 12.4395460000000000
 15.1684245000000004 12.4061535000000003 12.5199350000000003
 10.7652394999999999 12.7468845000000002 13.8801620000000003
 10.0447854999999997 12.1437355000000018 11.5252979999999994
 15.3893564999999999 12.0083785000000010 13.5110780000000013
 15.5508734999999998 11.6952335000000005 11.7854530000000004
 15.6794984999999993 13.3577145000000002 12.3928170000000009
 10.0090164999999995 13.5332725000000007 13.9035110000000000
 10.3422574999999988 11.8384515000000015 14.3090380000000010
 11.6098234999999992 13.0591975000000016 14.4915699999999994
  9.5417015000000003 11.2441845000000011 11.8791589999999996
  9.3205014999999989 12.9592075000000015 11.5223390000000006
 10.3935595000000003 11.9801375000000014 10.5084300000000006
 13.2011624999999988 13.7558155000000006 12.1259220000000010
 11.8161644999999993 13.7010755000000017 11.9114149999999999
 12.5706914999999988 11.2489545000000017 12.3761749999999999
