 C  H  N  O 
 1.0000000000000000
    25.0000000000000000    0.0000000000000000    0.0000000000000000
     0.0000000000000000   25.0000000000000000    0.0000000000000000
     0.0000000000000000    0.0000000000000000   25.0000000000000000
 C   H   N   O  
   3   5   1   2
Cartesian
 12.9137364999999988 12.5268354999999989 12.3748435000000008
 10.8294244999999982 11.8411814999999994 12.4819025000000021
 14.3885594999999995 12.3980885000000001 12.3968635000000020
 14.7060624999999998 11.7933254999999999 13.2467245000000009
 14.7305044999999986 11.9016764999999989 11.4875525000000014
 14.8406804999999995 13.3835514999999994 12.4616185000000019
 10.5386494999999982 11.6009224999999994 13.5124475000000022
 10.1593194999999987 11.3832454999999992 11.7566285000000015
 12.2585444999999993 13.6167544999999990 12.4193115000000009
 10.8794594999999994 13.2431345000000000 12.2794985000000008
 12.1707345000000000 11.3903505000000003 12.2626265000000014
