 C  F  H  N  O 
 1.0000000000000000
    25.0000000000000000    0.0000000000000000    0.0000000000000000
     0.0000000000000000   25.0000000000000000    0.0000000000000000
     0.0000000000000000    0.0000000000000000   25.0000000000000000
 C   F   H   N   O  
   3   1   4   1   2
Cartesian
 11.5036810000000003 12.4315289999999994 12.3137179999999997
 14.2553929999999998 12.6540489999999988 12.6766389999999998
  9.9397599999999997 12.6358059999999988 12.4027030000000007
 15.4443459999999995 12.2470020000000002 12.2690710000000003
  9.6263839999999998 12.0439059999999998 13.2597240000000003
  9.6064249999999998 13.6633180000000003 12.5164530000000003
  9.5556540000000005 12.2240699999999993 11.4718099999999996
 13.8945860000000003 12.0877829999999999 13.5281900000000004
 11.8450869999999995 13.6721729999999990 12.4049440000000004
 13.7305519999999994 13.5928570000000004 12.1390360000000008
 12.0301150000000003 11.3278269999999992 12.2065090000000005
